56686
14, 9, 12, 4, 18, 30, 47, 34, 53, 54, 26, 28, 55, 6, 3, 13, 43, 51, 40, 7, 37, 5, 35, 20, 50, 24, 38, 8, 44, 41, 32, 19, 49, 48, 17, 23, 21, 29, 22, 10, 46, 39, 36, 15, 16, 52, 45, 42, 33, 1, 27, 31, 25, 11, 2
